(set-info :source |printed by MathSAT|)
(declare-fun call_Age.flby () Int)
(declare-fun call_Age2.flby () Int)
(declare-fun k () Int)
(declare-fun call_Age2.age_of_p () Int)
(declare-fun param_q () Bool)
(declare-fun call_Age.age_of_p () Int)
(declare-fun env () Bool)
(declare-fun param_t () Bool)
(declare-fun call_Age3.flby () Int)
(declare-fun call_Sofar.flby () Bool)
(declare-fun call_Sofar.Sofar () Bool)
(declare-fun call_Age3.age_of_p () Int)
(declare-fun flby () Int)
(declare-fun _OK_ () Bool)
(declare-fun param_k0 () Int)
(define-fun .def_203 () Bool (= call_Age3.flby call_Age3.age_of_p))
(define-fun .def_201 () Bool (= call_Sofar.flby call_Sofar.Sofar))
(define-fun .def_199 () Bool (= call_Age2.age_of_p call_Age2.flby))
(define-fun .def_197 () Bool (= call_Age.age_of_p call_Age.flby))
(define-fun .def_195 () Bool (= env call_Sofar.Sofar))
(define-fun .def_192 () Bool (= k flby))
(define-fun .def_188 () Bool (and param_t param_q))
(define-fun .def_186 () Bool (<= k call_Age3.age_of_p))
(define-fun .def_187 () Bool (not .def_186))
(define-fun .def_189 () Bool (or .def_187 .def_188))
(define-fun .def_184 () Bool (not env))
(define-fun .def_190 () Bool (or .def_184 .def_189))
(define-fun .def_191 () Bool (= _OK_ .def_190))
(define-fun .def_193 () Bool (and .def_191 .def_192))
(define-fun .def_196 () Bool (and .def_193 .def_195))
(define-fun .def_198 () Bool (and .def_196 .def_197))
(define-fun .def_200 () Bool (and .def_198 .def_199))
(define-fun .def_202 () Bool (and .def_200 .def_201))
(define-fun .def_204 () Bool (and .def_202 .def_203))
(define-fun .def_180 () Bool (= call_Age3.flby 0))
(define-fun .def_176 () Bool (= call_Age2.flby 0))
(define-fun .def_173 () Bool (= param_k0 flby))
(define-fun .def_170 () Bool (= call_Age.flby 0))
(define-fun .def_174 () Bool (and .def_170 .def_173))
(define-fun .def_177 () Bool (and .def_174 .def_176))
(define-fun .def_164 () Bool (<= 1 k))
(define-fun .def_160 () Bool (<= k call_Age.age_of_p))
(define-fun .def_161 () Bool (not .def_160))
(define-fun .def_163 () Bool (or .def_161 param_q))
(define-fun .def_165 () Bool (and .def_163 .def_164))
(define-fun .def_155 () Bool (<= k call_Age2.age_of_p))
(define-fun .def_156 () Bool (not .def_155))
(define-fun .def_158 () Bool (or .def_156 param_t))
(define-fun .def_166 () Bool (and .def_158 .def_165))
(define-fun .def_168 () Bool (= .def_166 call_Sofar.flby))
(define-fun .def_178 () Bool (and .def_168 .def_177))
(define-fun .def_181 () Bool (and .def_178 .def_180))
(define-fun .def_205 () Bool (and .def_181 .def_204))
(assert .def_205)
